600 -464130
900 -461315
1200 -459096
1500 -457177
1800 -455637
2100 -454054
2400 -452527
2700 -451357
3000 -450306
3300 -449248
3600 -448311
3900 -447317
4200 -446273
4500 -445307
4800 -444538
5100 -443727
5400 -442966
5700 -442224
6000 -441485
6300 -440867
6600 -440295
6900 -439719
7200 -439168
7500 -438806
7800 -438128
8100 -437583
8400 -437142
8700 -436664
9000 -436268
9300 -435883
9600 -435445
9900 -435041
10200 -434615
10500 -434260
10800 -433937
11100 -433700
11400 -433479
11700 -433221
12000 -433019
12300 -432825
12600 -432583
12900 -432379
13200 -432245
13500 -432063
13800 -431912
14100 -431691
14400 -431579
14700 -431456
15000 -431225
15300 -430961
15600 -430871
15900 -430795
16200 -430573
16500 -430387
16800 -430200
17100 -430039
17400 -429912
17700 -429741
18000 -429580
18300 -429478
18600 -429375
18900 -429221
19200 -429153
19500 -429026
19800 -428839
20100 -428741
20400 -428558
20700 -428493
